 vasp.5.4.1 05Feb16 (build Aug 09 2016 09:44:09) complex

 executed on   Abel-impi-ifc-cuda date 2016.12.07  21:18:12

 INCAR:
 POTCAR:   PAW_PBE Cu 05Jan2001
 POTCAR:   PAW_PBE O 08Apr2002
 POTCAR:   PAW_PBE Cu 05Jan2001
   VRHFIN =Cu: d10 p1

   TITEL  = PAW_PBE Cu 05Jan2001
   POMASS =   63.546; ZVAL   =   11.000    mass and valenz
   ENMAX  =  273.214; ENMIN  =  204.910 eV
   QCUT   =   -4.481; QGAM   =    8.962    optimization parameters

   Description
     l     E      TYP  RCUT    TYP  RCUT
     2   .000     23  2.300
     2   .000     23  2.300
     0   .000     23  2.300
     0   .000     23  2.300
     1  -.200     23  2.300
     1   .000     23  2.300
     3   .000      7   .000

 POTCAR:   PAW_PBE O 08Apr2002
   VRHFIN =O: s2p4

   TITEL  = PAW_PBE O 08Apr2002
   POMASS =   16.000; ZVAL   =    6.000    mass and valenz
   ENMAX  =  400.000; ENMIN  =  300.000 eV
   QCUT   =   -5.520; QGAM   =   11.041    optimization parameters

   Description
     l     E      TYP  RCUT    TYP  RCUT
     0   .000     23  1.200
     0  -.700     23  1.200
     1   .000     23  1.520
     1   .600     23  1.520
     2   .000      7  1.500

 Optimization of the real space projectors (new method)

 maximal supplied QI-value         = 16.25
 optimisation between [QCUT,QGAM] = [ 12.51, 25.03] = [ 43.85,175.40] Ry
 Optimized for a Real-space Cutoff    1.31 Angstroem

   l    n(q)    QCUT    max X(q) W(low)/X(q) W(high)/X(q)  e(spline)
   2      9    12.514     4.977    0.49E-04    0.30E-04    0.53E-07
   2      9    12.514    13.467    0.37E-03    0.73E-03    0.57E-06
   0     10    12.514    13.303    0.12E-04    0.12E-04    0.49E-08
   0     10    12.514    44.613    0.12E-03    0.24E-03    0.20E-06
   1      9    12.514     5.276    0.49E-04    0.26E-04    0.57E-07
   1      9    12.514     7.322    0.32E-03    0.33E-04    0.28E-06
 Optimization of the real space projectors (new method)

 maximal supplied QI-value         = 24.76
 optimisation between [QCUT,QGAM] = [ 12.38, 25.00] = [ 42.90,175.06] Ry
 Optimized for a Real-space Cutoff    1.06 Angstroem

   l    n(q)    QCUT    max X(q) W(low)/X(q) W(high)/X(q)  e(spline)
   0      8    12.378     4.192    0.24E-04    0.14E-04    0.38E-07
   0      8    12.378     8.473    0.28E-03    0.14E-03    0.22E-06
   1      7    12.378     2.474    0.86E-04    0.10E-04    0.31E-07
   1      7    12.378     3.912    0.50E-03    0.11E-03    0.22E-06
 PAW_PBE Cu 05Jan2001                   :
 PAW_PBE O 08Apr2002                    :

 POSCAR: Cu2 O
  positions in direct lattice
  velocities in cartesian coordinates
 exchange correlation table for  LEXCH =        8
   RHO(1)=    0.500       N(1)  =     2000
   RHO(2)=  100.500       N(2)  =     4000

 ion  position               nearest neighbor table
   1  0.250  0.250  0.250-   5 1.87   6 1.87   4 3.05   2 3.05   3 3.05   3 3.05   4 3.05   2 3.05
                             4 3.05   4 3.05   2 3.05   3 3.05   3 3.05   2 3.05
   2  0.750  0.750  0.250-   5 1.87   6 1.87   4 3.05   1 3.05   3 3.05   3 3.05   4 3.05   1 3.05
                             3 3.05   3 3.05   1 3.05   4 3.05   4 3.05   1 3.05
   3  0.750  0.250  0.750-   5 1.87   6 1.87   4 3.05   1 3.05   2 3.05   1 3.05   2 3.05   2 3.05
                             4 3.05   2 3.05   1 3.05   4 3.05   1 3.05   4 3.05
   4  0.250  0.750  0.750-   5 1.87   6 1.87   3 3.05   1 3.05   2 3.05   1 3.05   2 3.05   1 3.05
                             3 3.05   1 3.05   2 3.05   3 3.05   2 3.05   3 3.05
   5  0.000  0.000  0.000-   1 1.87   2 1.87   3 1.87   4 1.87
   6  0.500  0.500  0.500-   1 1.87   2 1.87   3 1.87   4 1.87

  LATTYP: Found a simple cubic cell.
 ALAT       =     4.3133289667

  Lattice vectors:

 A1 = (   4.3133289667,   0.0000000000,   0.0000000000)
 A2 = (   0.0000000000,   4.3133289667,   0.0000000000)
 A3 = (   0.0000000000,   0.0000000000,   4.3133289667)

Analysis of symmetry for initial positions (statically):
 Subroutine PRICEL returns:
 Original cell was already a primitive cell.

 Routine SETGRP: Setting up the symmetry group for a
 simple cubic supercell.

 Subroutine GETGRP returns: Found 48 space group operations
 (whereof 24 operations were pure point group operations)
 out of a pool of 48 trial point group operations.

The static configuration has the point symmetry T_d .
 The point group associated with its full space group is O_h .

Analysis of symmetry for dynamics (positions and initial velocities):
 Subroutine PRICEL returns:
 Original cell was already a primitive cell.

 Routine SETGRP: Setting up the symmetry group for a
 simple cubic supercell.

 Subroutine GETGRP returns: Found 48 space group operations
 (whereof 24 operations were pure point group operations)
 out of a pool of 48 trial point group operations.

The dynamic configuration has the point symmetry T_d .
 The point group associated with its full space group is O_h .

 Subroutine INISYM returns: Found 48 space group operations
 (whereof 24 operations are pure point group operations),
 and found     1 'primitive' translations

Automatic generation of k-mesh.
 generate k-points for:    3    3    3
Space group operators:
 irot       det(A)        alpha          n_x          n_y          n_z        tau_x        tau_y        tau_z
    1     1.000000     0.000001     1.000000     0.000000     0.000000     0.000000     0.000000     0.000000
    2     1.000000   120.000000    -0.577350    -0.577350    -0.577350     0.000000     0.000000     0.000000
    3     1.000000   120.000000     0.577350     0.577350     0.577350     0.000000     0.000000     0.000000
    4    -1.000000    90.000000     0.000000     0.000000    -1.000000     0.000000     0.000000     0.000000
    5    -1.000000   180.000000     0.000000     0.707107     0.707107     0.000000     0.000000     0.000000
    6    -1.000000    90.000000     0.000000     1.000000     0.000000     0.000000     0.000000     0.000000
    7     1.000000   180.000000     0.000000     0.000000     1.000000     0.000000     0.000000     0.000000
    8     1.000000   120.000000    -0.577350     0.577350     0.577350     0.000000     0.000000     0.000000
    9     1.000000   120.000000    -0.577350     0.577350    -0.577350     0.000000     0.000000     0.000000
   10    -1.000000    90.000000     0.000000     0.000000     1.000000     0.000000     0.000000     0.000000
   11    -1.000000    90.000000    -1.000000     0.000000     0.000000     0.000000     0.000000     0.000000
   12    -1.000000   180.000000     0.707107     0.000000     0.707107     0.000000     0.000000     0.000000
   13     1.000000   120.000000     0.577350    -0.577350     0.577350     0.000000     0.000000     0.000000
   14     1.000000   120.000000    -0.577350    -0.577350     0.577350     0.000000     0.000000     0.000000
   15     1.000000   180.000000     1.000000     0.000000     0.000000     0.000000     0.000000     0.000000
   16    -1.000000    90.000000     0.000000    -1.000000     0.000000     0.000000     0.000000     0.000000
   17    -1.000000   180.000000     0.707107     0.707107     0.000000     0.000000     0.000000     0.000000
   18    -1.000000    90.000000     1.000000     0.000000     0.000000     0.000000     0.000000     0.000000
   19     1.000000   120.000000     0.577350    -0.577350    -0.577350     0.000000     0.000000     0.000000
   20     1.000000   180.000000     0.000000     1.000000     0.000000     0.000000     0.000000     0.000000
   21     1.000000   120.000000     0.577350     0.577350    -0.577350     0.000000     0.000000     0.000000
   22    -1.000000   180.000000     0.000000    -0.707107     0.707107     0.000000     0.000000     0.000000
   23    -1.000000   180.000000     0.707107    -0.707107     0.000000     0.000000     0.000000     0.000000
   24    -1.000000   180.000000     0.707107     0.000000    -0.707107     0.000000     0.000000     0.000000
   25    -1.000000     0.000001     1.000000     0.000000     0.000000     0.500000     0.500000     0.500000
   26    -1.000000   120.000000    -0.577350    -0.577350    -0.577350     0.500000     0.500000     0.500000
   27    -1.000000   120.000000     0.577350     0.577350     0.577350     0.500000     0.500000     0.500000
   28     1.000000    90.000000     0.000000     0.000000    -1.000000     0.500000     0.500000     0.500000
   29     1.000000   180.000000     0.000000     0.707107     0.707107     0.500000     0.500000     0.500000
   30     1.000000    90.000000     0.000000     1.000000     0.000000     0.500000     0.500000     0.500000
   31    -1.000000   180.000000     0.000000     0.000000     1.000000     0.500000     0.500000     0.500000
   32    -1.000000   120.000000    -0.577350     0.577350     0.577350     0.500000     0.500000     0.500000
   33    -1.000000   120.000000    -0.577350     0.577350    -0.577350     0.500000     0.500000     0.500000
   34     1.000000    90.000000     0.000000     0.000000     1.000000     0.500000     0.500000     0.500000
   35     1.000000    90.000000    -1.000000     0.000000     0.000000     0.500000     0.500000     0.500000
   36     1.000000   180.000000     0.707107     0.000000     0.707107     0.500000     0.500000     0.500000
   37    -1.000000   120.000000     0.577350    -0.577350     0.577350     0.500000     0.500000     0.500000
   38    -1.000000   120.000000    -0.577350    -0.577350     0.577350     0.500000     0.500000     0.500000
   39    -1.000000   180.000000     1.000000     0.000000     0.000000     0.500000     0.500000     0.500000
   40     1.000000    90.000000     0.000000    -1.000000     0.000000     0.500000     0.500000     0.500000
   41     1.000000   180.000000     0.707107     0.707107     0.000000     0.500000     0.500000     0.500000
   42     1.000000    90.000000     1.000000     0.000000     0.000000     0.500000     0.500000     0.500000
   43    -1.000000   120.000000     0.577350    -0.577350    -0.577350     0.500000     0.500000     0.500000
   44    -1.000000   180.000000     0.000000     1.000000     0.000000     0.500000     0.500000     0.500000
   45    -1.000000   120.000000     0.577350     0.577350    -0.577350     0.500000     0.500000     0.500000
   46     1.000000   180.000000     0.000000    -0.707107     0.707107     0.500000     0.500000     0.500000
   47     1.000000   180.000000     0.707107    -0.707107     0.000000     0.500000     0.500000     0.500000
   48     1.000000   180.000000     0.707107     0.000000    -0.707107     0.500000     0.500000     0.500000

 Subroutine IBZKPT returns following result:

 Found      4 irreducible k-points:

 Following reciprocal coordinates:
            Coordinates               Weight
  0.000000  0.000000  0.000000      1.000000
  0.333333  0.000000  0.000000      6.000000
  0.333333  0.333333  0.000000     12.000000
  0.333333  0.333333  0.333333      8.000000

 Following cartesian coordinates:
            Coordinates               Weight
  0.000000  0.000000  0.000000      1.000000
  0.077280  0.000000  0.000000      6.000000
  0.077280  0.077280  0.000000     12.000000
  0.077280  0.077280  0.077280      8.000000

 I would recommend the setting:
[...]
   SMASS  =  -3.00    Nose mass-parameter (am)
   estimated Nose-frequenzy (Omega)   =  0.10E-29 period in steps =****** mass=  -0.425E-27a.u.
   SCALEE = 1.0000    scale energy and forces
   NPACO  =    256;   APACO  = 16.0  distance and # of slots for P.C.
   PSTRESS=    0.0 pullay stress

  Mass of Ions in am
   POMASS =  63.55 16.00
  Ionic Valenz
   ZVAL   =  11.00  6.00
  Atomic Wigner-Seitz radii
  virtual crystal weights
   VCA    =   1.00  1.00
   NELECT =      56.0000    total number of electrons
   NUPDOWN=      -1.0000    fix difference up-down

 DOS related values:
   EMIN   = -20.00;   EMAX   = 20.00  energy-range for DOS
   EFERMI =   0.00
   ISMEAR =     0;   SIGMA  =   0.10  broadening in eV -4-tet -1-fermi 0-gaus

 Electronic relaxation 2 (details)
   IALGO  =     68    algorithm
   LDIAG  =      T    sub-space diagonalisation (order eigenvalues)
   LSUBROT=      F    optimize rotation matrix (better conditioning)
   TURBO    =      0    0=normal 1=particle mesh
   IRESTART =      0    0=no restart 2=restart with 2 vectors
   NREBOOT  =      0    no. of reboots
   NMIN     =      0    reboot dimension
   EREF     =   0.00    reference energy to select bands
   IMIX   =      4    mixing-type and parameters
     AMIX     =   0.40;   BMIX     =  1.00
     AMIX_MAG =   1.60;   BMIX_MAG =  1.00
     AMIN     =   0.10
     WC   =   100.;   INIMIX=   1;  MIXPRE=   1;  MAXMIX= -45

 Intra band minimization:
   WEIMIN = 0.0000     energy-eigenvalue tresh-hold
   EBREAK =  0.69E-08  absolut break condition
   DEPER  =   0.30     relativ break condition

   TIME   =   0.40     timestep for ELM

  volume/ion in A,a.u.               =      13.37        90.26
  Fermi-wavevector in a.u.,A,eV,Ry     =   1.452084  2.744040 28.688517  2.108546
  Thomas-Fermi vector in A             =   2.569506

 Write flags
   LWAVE  =      F    write WAVECAR
   LCHARG =      T    write CHGCAR
   LVTOT  =      F    write LOCPOT, total local potential
   LVHAR  =      F    write LOCPOT, Hartree potential only
   LELF   =      T    write electronic localiz. function (ELF)
   LORBIT =     11    0 simple, 1 ext, 2 COOP (PROOUT)

 Dipole corrections
   LMONO  =      F    monopole corrections only (constant potential shift)
   LDIPOL =      F    correct potential (dipole corrections)
   IDIPOL =      0    1-x, 2-y, 3-z, 4-all directions
   EPSILON=  1.0000000 bulk dielectric constant

 Exchange correlation treatment:
   GGA     =    --    GGA type
   VOSKOWN=      0    Vosko Wilk Nusair interpolation
   LHFCALC =     F    Hartree Fock is set to
   LHFONE  =     F    Hartree Fock one center treatment
   AEXX    =    0.0000 exact exchange contribution

 Linear response parameters
   LEPSILON=     F    determine dielectric tensor
   LRPA    =     F    only Hartree local field effects (RPA)
   LNABLA  =     F    use nabla operator in PAW spheres
   LVEL    =     F    velocity operator in full k-point grid
   LINTERFAST=   F  fast interpolation
   KINTER  =     0    interpolate to denser k-point grid
   CSHIFT  =0.1000    complex shift for real part using Kramers Kronig
   OMEGAMAX=  -1.0    maximum frequency
   DEG_THRESHOLD= 0.2000000E-02 threshold for treating states as degnerate
   RTIME   =    0.100 relaxation time in fs

 Orbital magnetization related:
   ORBITALMAG=     F  switch on orbital magnetization
   LCHIMAG   =     F  perturbation theory with respect to B field
   DQ        =  0.001000  dq finite difference perturbation B field

 Static calculation
 charge density and potential remain constant during run
 non-spin polarized calculation
 RMM-DIIS sequential band-by-band and
  variant of blocked Davidson during initial phase
 perform sub-space diagonalisation
    before iterative eigenvector-optimisation
 no mixing
 using additional bands            8
 real space projection scheme for non local part
 use partial core corrections
 calculate Harris-corrections to forces
   (improved forces if not selfconsistent)
 use gradient corrections
 WARNING: stress and forces are not correct
  (second derivative of E(xc) not defined)
 use of overlap-Matrix (Vanderbilt PP)
 Gauss-broadening in eV      SIGMA  =   0.10

  energy-cutoff  :      600.00
  volume of cell :       80.25
      direct lattice vectors                 reciprocal lattice vectors
     4.313328967  0.000000000  0.000000000     0.231839493  0.000000000  0.000000000
     0.000000000  4.313328967  0.000000000     0.000000000  0.231839493  0.000000000
     0.000000000  0.000000000  4.313328967     0.000000000  0.000000000  0.231839493

  length of vectors
     4.313328967  4.313328967  4.313328967     0.231839493  0.231839493  0.231839493

 k-points in units of 2pi/SCALE and weight: read from INCAR
   0.00000000  0.00000000  0.00000000       0.037
   0.07727983  0.00000000  0.00000000       0.222
   0.07727983  0.07727983  0.00000000       0.444
   0.07727983  0.07727983  0.07727983       0.296

 k-points in reciprocal lattice and weights: read from INCAR
   0.00000000  0.00000000  0.00000000       0.037
   0.33333333  0.00000000  0.00000000       0.222
   0.33333333  0.33333333  0.00000000       0.444
   0.33333333  0.33333333  0.33333333       0.296

 position of ions in fractional coordinates (direct lattice)
   0.25000000  0.25000000  0.25000000
   0.75000000  0.75000000  0.25000000
   0.75000000  0.25000000  0.75000000
   0.25000000  0.75000000  0.75000000
   0.00000000  0.00000000  0.00000000
   0.50000000  0.50000000  0.50000000

 position of ions in cartesian coordinates  (Angst):
   1.07833224  1.07833224  1.07833224
   3.23499673  3.23499673  1.07833224
   3.23499673  1.07833224  3.23499673
   1.07833224  3.23499673  3.23499673
   0.00000000  0.00000000  0.00000000
   2.15666448  2.15666448  2.15666448

 k-point  1 :   0.0000 0.0000 0.0000  plane waves:    2721
 k-point  2 :   0.3333 0.0000 0.0000  plane waves:    2693
 k-point  3 :   0.3333 0.3333 0.0000  plane waves:    2682
 k-point  4 :   0.3333 0.3333 0.3333  plane waves:    2674

 maximum and minimum number of plane-waves per node :       356      325

 maximum number of plane-waves:      2721
 maximum index in each direction:
   IXMAX=    8   IYMAX=    8   IZMAX=    8
   IXMIN=   -8   IYMIN=   -8   IZMIN=   -8

 WARNING: aliasing errors must be expected set NGX to  34 to avoid them
 WARNING: aliasing errors must be expected set NGY to  34 to avoid them
 WARNING: aliasing errors must be expected set NGZ to  34 to avoid them
 aliasing errors are usually negligible using standard VASP settings
 and one can safely disregard these warnings

 real space projection operators:
  max/ min on nodes  :        224.53        172.00

 parallel 3D FFT for wavefunctions:
    minimum data exchange during FFTs selected (reduces bandwidth)
 parallel 3D FFT for charge:
    minimum data exchange during FFTs selected (reduces bandwidth)

 initial charge density was supplied:
 number of electron      56.0000138 magnetization
 keeping initial charge density in first step

 Maximum index for non-local projection operator          407
 Maximum index for augmentation-charges          277 (set IRDMAX)

 First call to EWALD:  gamma=   0.411
 Maximum number of real-space cells 3x 3x 3
 Maximum number of reciprocal cells 3x 3x 3

 FEWALD executed in parallel

----------------------------------------- Iteration    1(   1)  ---------------------------------------

 eigenvalue-minimisations  :   288
 total energy-change (2. order) : 0.4622074E+03  (-0.2932815E+04)
 number of electron      56.0000138 magnetization
 augmentation part       56.0000138 magnetization

 Free energy of the ion-electron system (eV)
  alpha Z        PSCENC =       356.52313969
  Ewald energy   TEWEN  =     -4494.89014999
  -Hartree energ DENC   =     -1852.82797080
  -exchange      EXHF   =         0.00000000
  -V(xc)+E(xc)   XCENC  =       227.44739390
  PAW double counting   =      4964.06876492    -5549.62373833
  entropy T*S    EENTRO =        -0.00862582
  eigenvalues    EBANDS =       382.88319383
  atomic energy  EATOM  =      6428.63541732
  Solvation  Ediel_sol  =         0.00000000
  free energy    TOTEN  =       462.20742470 eV

  energy without entropy =      462.21605052  energy(sigma->0) =      462.21173761

[...]

 eigenvalue-minimisations  :   288
 total energy-change (2. order) :-0.4305963E+03  (-0.4095482E+03)
 number of electron      56.0000138 magnetization
 augmentation part       56.0000138 magnetization

[...]

----------------------------------------- Iteration    1(   9)  ---------------------------------------

 eigenvalue-minimisations  :   189
 total energy-change (2. order) :-0.1078661E-07  (-0.3247773E-07)
 number of electron      56.0000138 magnetization
 augmentation part       56.0000138 magnetization

 Free energy of the ion-electron system (eV)
  alpha Z        PSCENC =       356.52313969
  Ewald energy   TEWEN  =     -4494.89014999
  -Hartree energ DENC   =     -1852.82797080
  -exchange      EXHF   =         0.00000000
  -V(xc)+E(xc)   XCENC  =       227.44739390
  PAW double counting   =      4964.06876492    -5549.62373833
  entropy T*S    EENTRO =        -0.00002803
  eigenvalues    EBANDS =      -106.55317306
  atomic energy  EATOM  =      6428.63541732
  Solvation  Ediel_sol  =         0.00000000
  free energy    TOTEN  =       -27.22034440 eV

  energy without entropy =      -27.22031637  energy(sigma->0) =      -27.22033039

 average (electrostatic) potential at core
  the test charge radii are     1.0053  0.7215
  (the norm of the test charge is              1.0000)
       1 -41.0347       2 -41.0347       3 -41.0347       4 -41.0347       5 -74.4650
       6 -74.4650

 E-fermi :   2.3820     XC(G=0): -10.8921     alpha+bet : -7.5359

 k-point     1 :       0.0000    0.0000    0.0000
  band No.  band energies     occupation
      1     -17.7295      2.00000
      2     -17.0524      2.00000
      3      -4.8050      2.00000
      4      -4.8050      2.00000
      5      -4.8050      2.00000
      6      -2.4906      2.00000
      7      -2.4624      2.00000
      8      -2.4624      2.00000
      9      -2.4624      2.00000
     10      -0.7366      2.00000
     11      -0.7366      2.00000
     12      -0.5961      2.00000
     13      -0.5961      2.00000
     14      -0.5961      2.00000
     15       0.1970      2.00000
     16       0.1970      2.00000
     17       0.3127      2.00000
     18       0.3127      2.00000
     19       0.3127      2.00000
     20       0.4247      2.00000
     21       0.4247      2.00000
     22       0.4247      2.00000
     23       0.6324      2.00000
     24       0.6324      2.00000
     25       0.6324      2.00000
     26       2.1357      1.99950
     27       2.1357      1.99950
     28       2.1357      1.99950
     29       2.6066      0.00149
     30       3.5087      0.00000
     31       3.5087      0.00000
     32       9.8526      0.00000
     33       9.8526      0.00000
     34       9.8529      0.00000
     35      11.3563      0.00000
     36      11.3564      0.00000

[...]

 k-point     4 :       0.3333    0.3333    0.3333
  band No.  band energies     occupation
      1     -17.5104      2.00000
      2     -17.2117      2.00000
      3      -4.6820      2.00000
      4      -4.6820      2.00000
      5      -4.6228      2.00000
      6      -3.3798      2.00000
      7      -3.2729      2.00000
      8      -3.2729      2.00000
      9      -1.0489      2.00000
     10      -0.7110      2.00000
     11      -0.7110      2.00000
     12      -0.1910      2.00000
     13      -0.1910      2.00000
     14      -0.0447      2.00000
     15      -0.0447      2.00000
     16       0.0668      2.00000
     17       0.0901      2.00000
     18       0.2050      2.00000
     19       0.2050      2.00000
     20       0.4503      2.00000
     21       0.4695      2.00000
     22       0.4695      2.00000
     23       0.5252      2.00000
     24       0.5252      2.00000
     25       0.9596      2.00000
     26       1.3999      2.00000
     27       1.3999      2.00000
     28       1.4404      2.00000
     29       4.4506      0.00000
     30       5.2170      0.00000
     31       5.2170      0.00000
     32       6.1630      0.00000
     33       6.9572      0.00000
     34       6.9572      0.00000
     35      11.1635      0.00000
     36      11.5334      0.00000

 soft charge-density along one line, spin component           1
         0         1         2         3         4         5         6         7         8         9
 total charge-density along one line

------------------------ aborting loop because EDIFF is reached ----------------------------------------

 total charge

# of ion     s       p       d       tot
  1        0.401   0.308   9.237   9.946
  2        0.426   0.308   9.225   9.959
  3        0.424   0.312   9.252   9.988
  4        0.424   0.312   9.252   9.988
  5        1.541   3.472   0.000   5.013
  6        1.541   3.472   0.000   5.013
tot        4.758   8.184  36.967  49.908

  FORCE on cell =-STRESS in cart. coord.  units (eV):
  Direction    XX          YY          ZZ          XY          YZ          ZX
  Alpha Z   356.52314   356.52314   356.52314
  Ewald   -1498.29830 -1498.29830 -1498.29830    -0.00000    -0.00000    -0.00000
  Hartree   617.39526   617.39526   617.39526    -0.00000    -0.00000    -0.00000
  E(xc)    -310.14477  -310.14477  -310.14477     0.00000     0.00000    -0.00000
  Local     219.06549   219.06549   219.06549     0.00000     0.00000    -0.00000
  n-local  -194.40632  -196.43656  -198.59681     0.17781     0.17167     0.17172
  augment   236.49115   236.49115   236.49115     0.00000     0.00000     0.00000
  Kinetic   571.81232   574.75951   576.88147    -1.86455    -0.18294    -0.18304
  Fock        0.00000     0.00000     0.00000     0.00000     0.00000     0.00000
  Total      -0.96349    -0.96349    -0.96349     0.00000     0.00000     0.00000
  in kB     -19.23630   -19.23630   -19.23630     0.00000     0.00000     0.00000

 VOLUME and BASIS-vectors are now :
  energy-cutoff  :      600.00
  volume of cell :       80.25
      direct lattice vectors                 reciprocal lattice vectors
     4.313328967  0.000000000  0.000000000     0.231839493  0.000000000  0.000000000
     0.000000000  4.313328967  0.000000000     0.000000000  0.231839493  0.000000000
     0.000000000  0.000000000  4.313328967     0.000000000  0.000000000  0.231839493

  length of vectors
     4.313328967  4.313328967  4.313328967     0.231839493  0.231839493  0.231839493

 FORCES acting on ions
    electron-ion (+dipol)            ewald-force                    non-local-force                 convergence-correction
   -.100E-11 0.155E-11 0.120E-12   0.284E-13 0.000E+00 0.142E-13   0.000E+00 -.529E-22 0.695E-22   -.105E-11 0.419E-12 -.100E-13
   0.222E-11 -.179E-11 0.634E-11   0.711E-13 0.142E-13 -.142E-13   0.141E-21 0.238E-21 0.106E-21   -.216E-12 -.247E-12 -.578E-12
   0.252E-11 -.154E-11 0.268E-11   0.426E-13 -.284E-13 0.426E-13   -.172E-21 -.529E-22 0.265E-22   0.360E-12 -.256E-13 -.122E-12
   0.804E-12 0.218E-11 0.781E-12   0.284E-13 0.000E+00 -.426E-13   -.159E-21 -.529E-22 -.662E-22   -.109E-11 -.243E-12 -.106E-11
   -.527E-13 0.177E-13 -.437E-14   -.114E-12 -.297E-13 0.137E-13   0.347E-17 -.694E-17 -.260E-17   -.131E-12 0.861E-13 -.333E-13
   0.237E-12 0.101E-11 0.121E-11   -.563E-13 0.295E-13 -.133E-13   -.173E-17 0.173E-17 0.694E-17   -.102E-12 0.348E-14 -.525E-13
   0.472E-11 0.143E-11 0.111E-10   0.374E-15 -.145E-13 0.332E-15   0.173E-17 -.520E-17 0.434E-17   -.223E-11 -.768E-14 -.186E-11

 POSITION                                       TOTAL-FORCE (eV/Angst)
      1.07833      1.07833      1.07833        -0.000000     -0.000000     -0.000000
      3.23500      3.23500      1.07833        -0.000000      0.000000     -0.000000
      3.23500      1.07833      3.23500         0.000000      0.000000      0.000000
      1.07833      3.23500      3.23500         0.000000     -0.000000      0.000000
      0.00000      0.00000      0.00000         0.000000      0.000000     -0.000000
      2.15666      2.15666      2.15666         0.000000      0.000000     -0.000000
    total drift:                                0.000000      0.000000      0.000000

  FREE ENERGIE OF THE ION-ELECTRON SYSTEM (eV)
  free  energy   TOTEN  =       -27.22034440 eV

  energy  without entropy=      -27.22031637  energy(sigma->0) =      -27.22033039

 total charge

# of ion     s       p       d       tot
  1        0.401   0.308   9.237   9.946
  2        0.426   0.308   9.225   9.959
  3        0.424   0.312   9.252   9.988
  4        0.424   0.312   9.252   9.988
  5        1.541   3.472   0.000   5.013
  6        1.541   3.472   0.000   5.013
tot        4.758   8.184  36.967  49.908