 vasp.5.4.1 05Feb16 (build Aug 09 2016 09:44:09) complex

 executed on   Abel-impi-ifc-cuda date 2016.11.29  16:13:33

 INCAR:
 POTCAR:   PAW_PBE Cu 05Jan2001
 POTCAR:   PAW_PBE O 08Apr2002
 POTCAR:   PAW_PBE Cu 05Jan2001
   VRHFIN =Cu: d10 p1

   TITEL  = PAW_PBE Cu 05Jan2001
   POMASS =   63.546; ZVAL   =   11.000    mass and valenz
   ENMAX  =  273.214; ENMIN  =  204.910 eV
   QCUT   =   -4.481; QGAM   =    8.962    optimization parameters

   Description
     l     E      TYP  RCUT    TYP  RCUT
     2   .000     23  2.300
     2   .000     23  2.300
     0   .000     23  2.300
     0   .000     23  2.300
     1  -.200     23  2.300
     1   .000     23  2.300
     3   .000      7   .000

 POTCAR:   PAW_PBE O 08Apr2002
   VRHFIN =O: s2p4

   TITEL  = PAW_PBE O 08Apr2002
   POMASS =   16.000; ZVAL   =    6.000    mass and valenz
   ENMAX  =  400.000; ENMIN  =  300.000 eV
   QCUT   =   -5.520; QGAM   =   11.041    optimization parameters

   Description
     l     E      TYP  RCUT    TYP  RCUT
     0   .000     23  1.200
     0  -.700     23  1.200
     1   .000     23  1.520
     1   .600     23  1.520
     2   .000      7  1.500

 Optimization of the real space projectors (new method)

 maximal supplied QI-value         = 16.25
 optimisation between [QCUT,QGAM] = [ 10.24, 20.48] = [ 29.35,117.42] Ry
 Optimized for a Real-space Cutoff    1.38 Angstroem

   l    n(q)    QCUT    max X(q) W(low)/X(q) W(high)/X(q)  e(spline)
   2      7    10.239     4.977    0.17E-04    0.72E-04    0.37E-07
   2      7    10.239    13.467    0.37E-03    0.57E-03    0.11E-06
   0      8    10.239    13.303    0.21E-04    0.11E-04    0.72E-08
   0      8    10.239    44.613    0.32E-03    0.63E-04    0.89E-07
   1      8    10.239     5.276    0.12E-03    0.12E-03    0.14E-07
   1      8    10.239     7.322    0.38E-03    0.54E-03    0.12E-06
 Optimization of the real space projectors (new method)

 maximal supplied QI-value         = 24.76
 optimisation between [QCUT,QGAM] = [ 10.15, 20.30] = [ 28.85,115.39] Ry
 Optimized for a Real-space Cutoff    1.30 Angstroem

   l    n(q)    QCUT    max X(q) W(low)/X(q) W(high)/X(q)  e(spline)
   0      8    10.150     4.192    0.55E-04    0.58E-04    0.78E-07
   0      8    10.150     8.473    0.46E-03    0.68E-03    0.23E-06
   1      7    10.150     2.474    0.11E-03    0.93E-04    0.33E-07
   1      7    10.150     3.912    0.46E-03    0.50E-03    0.15E-06
 PAW_PBE Cu 05Jan2001                   :
 PAW_PBE O 08Apr2002                    :

 POSCAR: Cu2 O
  positions in direct lattice
  velocities in cartesian coordinates
 exchange correlation table for  LEXCH =        8
   RHO(1)=    0.500       N(1)  =     2000
   RHO(2)=  100.500       N(2)  =     4000

 ion  position               nearest neighbor table
   1  0.083  0.083  0.083- 110 1.84 109 1.84   4 3.01   2 3.01   3 3.01  36 3.01  37 3.01  39 3.01
                            40 3.01  33 3.01  34 3.01   7 3.01   5 3.01   6 3.01
   2  0.917  0.917  0.083- 109 1.84 146 1.84   4 3.01   1 3.01   3 3.01  33 3.01  34 3.01  26 3.01
                            31 3.01  35 3.01  38 3.01  78 3.01  88 3.01  64 3.01
   3  0.917  0.083  0.917- 109 1.84 136 1.84   4 3.01   1 3.01   2 3.01  39 3.01  40 3.01  21 3.01
                            31 3.01  32 3.01  35 3.01  75 3.01  85 3.01  57 3.01
   4  0.083  0.917  0.917- 109 1.84 141 1.84   3 3.01   1 3.01   2 3.01  36 3.01  37 3.01  21 3.01
                            26 3.01  32 3.01  38 3.01  76 3.01  82 3.01  60 3.01
   5  0.250  0.250  0.083- 110 1.84 131 1.84  73 3.01  93 3.01  37 3.01  39 3.01  52 3.01  16 3.01
                            12 3.01   1 3.01  43 3.01  42 3.01   7 3.01   6 3.01
   6  0.250  0.083  0.250- 110 1.84 127 1.84  70 3.01  90 3.01  34 3.01  36 3.01  48 3.01  12 3.01
                             8 3.01   1 3.01  43 3.01  41 3.01   7 3.01   5 3.01
   7  0.083  0.250  0.250- 110 1.84 123 1.84  67 3.01  91 3.01  33 3.01  40 3.01  44 3.01  16 3.01
                             8 3.01   1 3.01  42 3.01  41 3.01   6 3.01   5 3.01
   8  0.083  0.083  0.417- 111 1.84 118 1.84   9 3.01  10 3.01  11 3.01  33 3.01  34 3.01  70 3.01
                            91 3.01  22 3.01  23 3.01   7 3.01   6 3.01  41 3.01
   9  0.917  0.917  0.417- 111 1.84 160 1.84   8 3.01  10 3.01  11 3.01  33 3.01  34 3.01  80 3.01
                            68 3.01  69 3.01  92 3.01  88 3.01  78 3.01 106 3.01
  10  0.917  0.083  0.583- 138 1.84 112 1.84  11 3.01   9 3.01   8 3.01  23 3.01  91 3.01  21 3.01
                            69 3.01  32 3.01  68 3.01  85 3.01  58 3.01  57 3.01
  11  0.083  0.917  0.583- 142 1.84 112 1.84  10 3.01   9 3.01   8 3.01  22 3.01  70 3.01  21 3.01
                            32 3.01  92 3.01  80 3.01  61 3.01  76 3.01  60 3.01
  12  0.417  0.083  0.083- 113 1.84 121 1.84  13 3.01  14 3.01  15 3.01  36 3.01  37 3.01  73 3.01
                            90 3.01  28 3.01  29 3.01   6 3.01   5 3.01  43 3.01
  13  0.417  0.917  0.917- 113 1.84 161 1.84  12 3.01  14 3.01  15 3.01  36 3.01  37 3.01  83 3.01
                            71 3.01  72 3.01  89 3.01  76 3.01  82 3.01 108 3.01
  14  0.583  0.917  0.083- 144 1.84 114 1.84  15 3.01  13 3.01  12 3.01  29 3.01  90 3.01  31 3.01
                            72 3.01  35 3.01  71 3.01  88 3.01  62 3.01  64 3.01
  15  0.583  0.083  0.917- 135 1.84 114 1.84  14 3.01  13 3.01  12 3.01  28 3.01  73 3.01  31 3.01
                            35 3.01  89 3.01  83 3.01  56 3.01  75 3.01  57 3.01
  16  0.083  0.417  0.083- 115 1.84 119 1.84  17 3.01  18 3.01  19 3.01  39 3.01  40 3.01  67 3.01
                            93 3.01  24 3.01  25 3.01   7 3.01   5 3.01  42 3.01
  17  0.917  0.417  0.917- 115 1.84 162 1.84  16 3.01  18 3.01  19 3.01  39 3.01  40 3.01  86 3.01
                            65 3.01  66 3.01  94 3.01  75 3.01  85 3.01 107 3.01
  18  0.083  0.583  0.917- 139 1.84 116 1.84  19 3.01  17 3.01  16 3.01  24 3.01  93 3.01  26 3.01
                            66 3.01  38 3.01  65 3.01  82 3.01  59 3.01  60 3.01
  19  0.917  0.583  0.083- 145 1.84 116 1.84  18 3.01  17 3.01  16 3.01  25 3.01  67 3.01  26 3.01
                            38 3.01  94 3.01  86 3.01  63 3.01  78 3.01  64 3.01
  20  0.250  0.250  0.750- 117 1.84 155 1.84 103 3.01  65 3.01  83 3.01  21 3.01  93 3.01  77 3.01
                            73 3.01  84 3.01  39 3.01  37 3.01  23 3.01  22 3.01
  21  0.083  0.083  0.750- 112 1.84 117 1.84  32 3.01  76 3.01  85 3.01   4 3.01  10 3.01  11 3.01
                             3 3.01  20 3.01  23 3.01  22 3.01  37 3.01  39 3.01
  22  0.250  0.083  0.583- 118 1.84 128 1.84  70 3.01  49 3.01  11 3.01  48 3.01   8 3.01  41 3.01
                            76 3.01  84 3.01  23 3.01  83 3.01  20 3.01  21 3.01
  23  0.083  0.250  0.583- 118 1.84 125 1.84  91 3.01  46 3.01  10 3.01  44 3.01   8 3.01  41 3.01
                            85 3.01  77 3.01  22 3.01  65 3.01  20 3.01  21 3.01
  24  0.250  0.583  0.083- 119 1.84 133 1.84  93 3.01  54 3.01  18 3.01  52 3.01  16 3.01  42 3.01
                            82 3.01  79 3.01  25 3.01  71 3.01  27 3.01  26 3.01
  25  0.083  0.583  0.250- 119 1.84 124 1.84  67 3.01  45 3.01  19 3.01  44 3.01  16 3.01  42 3.01
                            78 3.01  81 3.01  24 3.01  80 3.01  27 3.01  26 3.01
  26  0.083  0.750  0.083- 116 1.84 120 1.84  38 3.01  78 3.01  82 3.01   4 3.01  18 3.01  19 3.01
                             2 3.01  27 3.01  24 3.01  25 3.01  36 3.01  34 3.01
  27  0.250  0.750  0.250- 120 1.84 158 1.84 105 3.01  71 3.01  80 3.01  26 3.01  90 3.01  79 3.01
                            70 3.01  81 3.01  36 3.01  34 3.01  24 3.01  25 3.01
  28  0.583  0.250  0.083- 121 1.84 132 1.84  73 3.01  53 3.01  15 3.01  52 3.01  12 3.01  43 3.01
                            75 3.01  87 3.01  29 3.01  86 3.01  31 3.01  30 3.01
  29  0.583  0.083  0.250- 121 1.84 129 1.84  90 3.01  50 3.01  14 3.01  48 3.01  12 3.01  43 3.01
                            88 3.01  74 3.01  28 3.01  68 3.01  31 3.01  30 3.01
  30  0.750  0.250  0.250- 122 1.84 157 1.84 104 3.01  68 3.01  86 3.01  31 3.01  91 3.01  74 3.01
                            67 3.01  87 3.01  40 3.01  33 3.01  28 3.01  29 3.01
  31  0.750  0.083  0.083- 114 1.84 122 1.84  35 3.01  75 3.01  88 3.01   3 3.01  14 3.01  15 3.01
                             2 3.01  30 3.01  28 3.01  29 3.01  33 3.01  40 3.01
  32  0.917  0.917  0.750- 112 1.84 152 1.84  21 3.01  57 3.01  60 3.01   4 3.01  10 3.01  11 3.01
                             3 3.01  69 3.01  92 3.01 100 3.01  35 3.01  38 3.01
  33  0.917  0.083  0.250- 111 1.84 122 1.84  34 3.01   7 3.01   9 3.01   8 3.01   1 3.01   2 3.01
                            91 3.01  40 3.01  88 3.01  68 3.01  30 3.01  31 3.01
  34  0.083  0.917  0.250- 111 1.84 120 1.84  33 3.01   6 3.01   9 3.01   8 3.01   1 3.01   2 3.01
                            70 3.01  36 3.01  78 3.01  80 3.01  27 3.01  26 3.01
  35  0.750  0.917  0.917- 114 1.84 152 1.84  31 3.01  57 3.01  64 3.01   3 3.01  14 3.01  15 3.01
                             2 3.01  72 3.01  89 3.01 100 3.01  32 3.01  38 3.01
  36  0.250  0.917  0.083- 113 1.84 120 1.84  37 3.01   6 3.01  13 3.01  12 3.01   1 3.01   4 3.01
                            90 3.01  34 3.01  82 3.01  71 3.01  27 3.01  26 3.01
  37  0.250  0.083  0.917- 113 1.84 117 1.84  36 3.01   5 3.01  13 3.01  12 3.01   1 3.01   4 3.01
                            73 3.01  39 3.01  76 3.01  83 3.01  20 3.01  21 3.01
  38  0.917  0.750  0.917- 116 1.84 152 1.84  26 3.01  60 3.01  64 3.01   4 3.01  18 3.01  19 3.01
                             2 3.01  66 3.01  94 3.01 100 3.01  32 3.01  35 3.01
  39  0.083  0.250  0.917- 115 1.84 117 1.84  40 3.01   5 3.01  17 3.01  16 3.01   1 3.01   3 3.01
                            93 3.01  37 3.01  85 3.01  65 3.01  20 3.01  21 3.01
  40  0.917  0.250  0.083- 115 1.84 122 1.84  39 3.01   7 3.01  17 3.01  16 3.01   1 3.01   3 3.01
                            67 3.01  33 3.01  75 3.01  86 3.01  30 3.01  31 3.01
  41  0.250  0.250  0.417- 118 1.84 147 1.84  77 3.01  84 3.01  95 3.01  42 3.01  43 3.01  48 3.01
                            44 3.01   8 3.01  23 3.01  22 3.01   6 3.01   7 3.01
  42  0.250  0.417  0.250- 119 1.84 147 1.84  79 3.01  81 3.01  95 3.01  41 3.01  43 3.01  52 3.01
                            44 3.01  16 3.01  25 3.01  24 3.01   5 3.01   7 3.01
  43  0.417  0.250  0.250- 121 1.84 147 1.84  74 3.01  87 3.01  95 3.01  41 3.01  42 3.01  52 3.01
                            48 3.01  12 3.01  29 3.01  28 3.01   5 3.01   6 3.01
  44  0.083  0.417  0.417- 123 1.84 140 1.84  45 3.01  46 3.01  67 3.01  91 3.01  47 3.01  25 3.01
                            23 3.01   7 3.01  81 3.01  77 3.01  42 3.01  41 3.01
  45  0.917  0.583  0.417- 124 1.84 154 1.84  25 3.01  44 3.01  47 3.01  46 3.01  67 3.01  80 3.01
                           104 3.01  92 3.01 102 3.01  63 3.01  78 3.01 106 3.01
  46  0.917  0.417  0.583- 125 1.84 154 1.84  23 3.01  44 3.01  47 3.01  45 3.01  91 3.01  65 3.01
                           104 3.01  66 3.01 102 3.01  85 3.01  58 3.01 107 3.01
  47  0.083  0.583  0.583- 140 1.84 126 1.84  45 3.01  46 3.01  44 3.01  77 3.01  81 3.01  66 3.01
[...]
   0.147E-02 0.147E-02 -.136E-02   -.357E-03 -.356E-03 0.161E-03   0.339E-20 0.318E-19 -.130E-19   -.518E-04 -.518E-04 0.116E-04
   0.147E-02 -.136E-02 0.147E-02   -.356E-03 0.161E-03 -.357E-03   -.720E-20 0.426E-19 -.284E-19   -.518E-04 0.116E-04 -.518E-04
   -.136E-02 0.147E-02 0.147E-02   0.161E-03 -.357E-03 -.356E-03   0.339E-19 -.237E-19 0.805E-20   0.116E-04 -.518E-04 -.518E-04
   0.309E-04 0.312E-04 -.144E-02   -.210E-04 -.214E-04 -.538E-04   -.195E-19 0.229E-19 -.223E-19   0.374E-04 0.374E-04 -.345E-04
   0.312E-04 -.144E-02 0.305E-04   -.214E-04 -.538E-04 -.210E-04   0.296E-20 0.868E-20 0.263E-19   0.374E-04 -.345E-04 0.374E-04
   -.144E-02 0.309E-04 0.308E-04   -.538E-04 -.210E-04 -.214E-04   -.249E-20 0.233E-19 0.330E-19   -.345E-04 0.374E-04 0.374E-04
   -.104E-02 -.104E-02 0.776E-03   -.661E-05 -.750E-05 0.132E-03   -.154E-20 -.290E-19 -.339E-19   -.302E-04 -.302E-04 0.682E-04
   0.131E-02 0.130E-02 0.625E-03   -.412E-03 -.398E-03 0.338E-03   0.229E-19 0.102E-19 0.229E-19   -.973E-05 -.972E-05 0.690E-04
   0.113E-02 -.101E-02 -.906E-03   -.160E-03 -.622E-04 0.127E-03   0.169E-19 0.269E-19 -.366E-19   -.980E-05 -.305E-04 -.282E-04
   -.101E-02 0.113E-02 -.905E-03   -.589E-04 -.160E-03 0.127E-03   0.347E-19 -.271E-19 0.402E-20   -.305E-04 -.980E-05 -.282E-04
   0.776E-03 -.104E-02 -.104E-02   0.132E-03 -.661E-05 -.750E-05   0.102E-19 0.139E-19 0.111E-20   0.682E-04 -.302E-04 -.302E-04
   0.625E-03 0.131E-02 0.130E-02   0.338E-03 -.412E-03 -.398E-03   -.847E-20 -.102E-19 0.305E-19   0.690E-04 -.973E-05 -.972E-05
   -.906E-03 0.113E-02 -.101E-02   0.127E-03 -.160E-03 -.622E-04   -.286E-19 0.407E-19 -.132E-19   -.282E-04 -.980E-05 -.305E-04
   -.905E-03 -.101E-02 0.113E-02   0.127E-03 -.589E-04 -.160E-03   0.170E-19 0.354E-19 -.440E-19   -.282E-04 -.305E-04 -.980E-05
   -.104E-02 0.776E-03 -.104E-02   -.750E-05 0.132E-03 -.661E-05   0.876E-20 -.271E-19 -.222E-19   -.302E-04 0.682E-04 -.302E-04
   0.130E-02 0.625E-03 0.131E-02   -.398E-03 0.338E-03 -.412E-03   -.508E-20 0.144E-19 -.186E-19   -.972E-05 0.690E-04 -.973E-05
   -.101E-02 -.906E-03 0.113E-02   -.622E-04 0.127E-03 -.160E-03   0.173E-19 -.223E-19 0.102E-19   -.305E-04 -.282E-04 -.980E-05
   0.113E-02 -.905E-03 -.101E-02   -.160E-03 0.127E-03 -.589E-04   0.169E-19 -.697E-19 -.338E-19   -.980E-05 -.282E-04 -.305E-04
   -.494E-04 -.404E-04 0.914E-04   0.148E-05 -.122E-04 -.875E-04   -.280E-19 -.847E-21 -.246E-19   -.424E-05 -.425E-05 0.428E-05
   -.140E-02 -.141E-02 -.680E-04   0.146E-04 0.155E-04 0.445E-04   0.185E-20 -.285E-19 -.542E-19   -.492E-05 -.490E-05 -.798E-04
   -.978E-04 -.116E-02 -.149E-02   0.520E-04 -.132E-03 0.251E-03   0.102E-19 0.293E-19 -.347E-19   -.441E-05 -.470E-04 -.274E-05
   -.116E-02 -.978E-04 -.149E-02   -.135E-03 0.520E-04 0.252E-03   0.236E-20 0.440E-19 -.416E-20   -.470E-04 -.441E-05 -.271E-05
   -.978E-04 -.149E-02 -.116E-02   0.520E-04 0.252E-03 -.135E-03   -.237E-19 -.335E-19 -.256E-19   -.441E-05 -.271E-05 -.470E-04
   -.116E-02 -.149E-02 -.979E-04   -.132E-03 0.251E-03 0.520E-04   0.236E-19 -.529E-21 0.169E-19   -.470E-04 -.274E-05 -.441E-05
   -.141E-02 -.678E-04 -.140E-02   0.155E-04 0.445E-04 0.146E-04   -.154E-19 0.678E-20 -.826E-20   -.490E-05 -.798E-04 -.492E-05
   -.404E-04 0.914E-04 -.494E-04   -.122E-04 -.875E-04 0.148E-05   -.847E-20 -.593E-20 -.762E-20   -.425E-05 0.428E-05 -.424E-05
   -.149E-02 -.978E-04 -.116E-02   0.251E-03 0.520E-04 -.132E-03   -.277E-19 0.203E-19 -.363E-19   -.274E-05 -.441E-05 -.470E-04
   -.149E-02 -.116E-02 -.979E-04   0.252E-03 -.135E-03 0.520E-04   0.449E-19 0.532E-19 -.102E-19   -.271E-05 -.470E-04 -.441E-05
   0.914E-04 -.494E-04 -.404E-04   -.875E-04 0.148E-05 -.122E-04   -.517E-19 0.339E-19 0.127E-19   0.428E-05 -.424E-05 -.425E-05
   -.678E-04 -.140E-02 -.141E-02   0.445E-04 0.146E-04 0.155E-04   0.203E-19 -.502E-19 -.887E-20   -.798E-04 -.492E-05 -.490E-05
   0.164E-02 0.164E-02 -.168E-03   -.368E-03 -.368E-03 0.198E-03   0.220E-19 0.551E-19 -.161E-19   -.357E-04 -.357E-04 -.799E-04
   0.156E-02 -.143E-02 0.115E-03   -.244E-03 0.115E-04 -.129E-03   0.233E-19 0.400E-19 -.208E-19   -.347E-04 -.443E-05 0.793E-04
   -.143E-02 0.156E-02 0.115E-03   0.149E-04 -.243E-03 -.128E-03   0.338E-19 -.536E-19 0.188E-19   -.442E-05 -.347E-04 0.794E-04
   -.168E-03 0.164E-02 0.164E-02   0.198E-03 -.368E-03 -.368E-03   -.932E-20 0.847E-20 0.237E-19   -.799E-04 -.357E-04 -.357E-04
   0.115E-03 0.156E-02 -.143E-02   -.129E-03 -.244E-03 0.115E-04   -.377E-19 0.212E-21 -.537E-19   0.793E-04 -.347E-04 -.443E-05
   0.115E-03 -.143E-02 0.156E-02   -.128E-03 0.149E-04 -.243E-03   -.720E-20 0.147E-19 -.275E-20   0.794E-04 -.442E-05 -.347E-04
   0.164E-02 -.168E-03 0.164E-02   -.368E-03 0.198E-03 -.368E-03   0.322E-19 -.102E-19 -.559E-19   -.357E-04 -.799E-04 -.357E-04
   -.143E-02 0.115E-03 0.156E-02   0.115E-04 -.129E-03 -.244E-03   -.237E-20 0.248E-19 0.404E-19   -.443E-05 0.793E-04 -.347E-04
   0.156E-02 0.115E-03 -.143E-02   -.243E-03 -.128E-03 0.149E-04   -.330E-19 0.551E-19 -.528E-19   -.347E-04 0.794E-04 -.442E-05
   -.846E-04 -.844E-04 0.150E-02   -.421E-04 -.425E-04 0.743E-04   -.119E-19 0.288E-19 -.271E-19   -.468E-04 -.468E-04 0.303E-04
   -.844E-04 0.150E-02 -.842E-04   -.425E-04 0.743E-04 -.421E-04   0.847E-20 0.847E-21 -.254E-19   -.468E-04 0.303E-04 -.468E-04
   0.150E-02 -.847E-04 -.840E-04   0.743E-04 -.421E-04 -.425E-04   0.322E-19 0.440E-19 0.220E-19   0.303E-04 -.468E-04 -.468E-04
   -.754E-03 0.106E-02 0.106E-02   0.446E-04 0.176E-03 0.176E-03   -.337E-19 -.208E-19 -.428E-19   -.729E-04 0.261E-04 0.261E-04
   0.845E-03 -.119E-02 0.108E-02   -.204E-03 0.847E-04 0.137E-03   0.146E-19 -.589E-19 0.212E-20   0.322E-04 0.140E-04 0.267E-04
   0.841E-03 0.108E-02 -.120E-02   -.199E-03 0.138E-03 0.944E-04   0.400E-19 0.362E-19 -.371E-19   0.322E-04 0.267E-04 0.140E-04
   -.547E-03 -.138E-02 -.138E-02   -.263E-03 0.346E-03 0.346E-03   0.155E-20 0.226E-20 -.658E-21   -.730E-04 0.143E-04 0.143E-04
   0.106E-02 -.754E-03 0.106E-02   0.176E-03 0.446E-04 0.176E-03   0.847E-20 -.227E-19 -.127E-19   0.261E-04 -.729E-04 0.261E-04
   0.108E-02 0.845E-03 -.119E-02   0.137E-03 -.204E-03 0.847E-04   -.212E-19 0.635E-20 0.617E-20   0.267E-04 0.322E-04 0.140E-04
   -.120E-02 0.841E-03 0.108E-02   0.944E-04 -.199E-03 0.138E-03   -.206E-19 0.911E-20 -.784E-20   0.140E-04 0.322E-04 0.267E-04
   -.138E-02 -.547E-03 -.138E-02   0.346E-03 -.263E-03 0.346E-03   0.460E-19 0.280E-19 -.489E-19   0.143E-04 -.730E-04 0.143E-04
   0.106E-02 0.106E-02 -.754E-03   0.176E-03 0.176E-03 0.446E-04   0.762E-20 -.313E-19 0.147E-19   0.261E-04 0.261E-04 -.729E-04
   -.119E-02 0.108E-02 0.844E-03   0.847E-04 0.137E-03 -.204E-03   0.607E-19 -.127E-20 0.847E-20   0.140E-04 0.267E-04 0.322E-04
   0.108E-02 -.120E-02 0.841E-03   0.138E-03 0.944E-04 -.199E-03   -.148E-19 -.201E-20 0.305E-19   0.267E-04 0.140E-04 0.322E-04
   -.138E-02 -.138E-02 -.547E-03   0.346E-03 0.346E-03 -.263E-03   -.249E-19 -.269E-19 0.154E-20   0.143E-04 0.143E-04 -.730E-04
   -.171E-02 -.182E-03 0.212E-03   0.268E-03 0.801E-04 -.148E-03   -.258E-19 0.318E-19 0.254E-20   0.970E-05 -.461E-04 0.459E-04
   -.109E-04 -.143E-02 -.111E-04   0.128E-04 -.173E-04 0.125E-04   0.309E-19 -.389E-19 -.559E-19   -.382E-04 -.352E-04 -.382E-04
   0.212E-03 -.185E-03 -.172E-02   -.148E-03 0.852E-04 0.278E-03   -.502E-19 -.296E-20 0.367E-19   0.459E-04 -.461E-04 0.973E-05
   -.185E-03 -.172E-02 0.211E-03   0.852E-04 0.278E-03 -.148E-03   -.508E-20 -.650E-19 -.339E-20   -.461E-04 0.973E-05 0.459E-04
   -.143E-02 -.107E-04 -.113E-04   -.173E-04 0.125E-04 0.128E-04   -.114E-19 -.131E-19 -.102E-19   -.352E-04 -.382E-04 -.382E-04
[...]
   -.317E-03 -.143E-03 -.318E-03   -.302E-04 -.234E-04 -.295E-04   0.254E-20 -.212E-20 0.678E-20   0.263E-04 -.134E-04 0.263E-04
   -.143E-03 -.318E-03 -.318E-03   -.234E-04 -.295E-04 -.302E-04   0.328E-20 -.110E-19 -.847E-20   -.134E-04 0.263E-04 0.263E-04
   -.424E-04 -.429E-04 0.118E-04   0.597E-04 0.604E-04 0.169E-04   0.508E-20 -.127E-19 0.179E-19   0.130E-04 0.130E-04 0.454E-04
   0.168E-03 0.168E-03 0.168E-03   0.167E-04 0.167E-04 0.167E-04   0.375E-20 -.304E-20 -.146E-19   -.253E-04 -.253E-04 -.253E-04
   -.429E-04 0.119E-04 -.424E-04   0.604E-04 0.169E-04 0.597E-04   -.847E-21 0.148E-19 0.161E-19   0.130E-04 0.454E-04 0.130E-04
   0.119E-04 -.424E-04 -.429E-04   0.169E-04 0.597E-04 0.604E-04   -.206E-20 0.762E-20 -.424E-19   0.454E-04 0.130E-04 0.130E-04
   -.307E-03 -.304E-03 -.152E-03   -.247E-04 -.296E-04 -.327E-04   -.941E-20 -.424E-20 0.381E-19   -.161E-04 -.161E-04 0.291E-04
   -.153E-03 -.153E-03 -.153E-03   -.310E-04 -.310E-04 -.310E-04   0.508E-20 -.466E-20 -.481E-19   0.289E-04 0.289E-04 0.289E-04
   -.152E-03 -.307E-03 -.304E-03   -.327E-04 -.247E-04 -.296E-04   0.424E-20 -.465E-20 -.619E-20   0.291E-04 -.161E-04 -.161E-04
   -.304E-03 -.152E-03 -.307E-03   -.296E-04 -.327E-04 -.247E-04   -.110E-20 -.241E-31 -.453E-20   -.161E-04 0.291E-04 -.161E-04
   -.421E-04 -.421E-04 -.421E-04   0.591E-04 0.591E-04 0.591E-04   -.603E-20 0.129E-20 -.242E-19   0.132E-04 0.132E-04 0.132E-04
   0.130E-03 0.126E-03 -.115E-03   0.150E-04 0.200E-04 0.588E-04   -.100E-19 0.142E-20 0.847E-20   0.107E-04 0.107E-04 0.162E-04
   -.115E-03 0.130E-03 0.126E-03   0.588E-04 0.150E-04 0.200E-04   0.593E-20 -.896E-20 0.167E-19   0.162E-04 0.107E-04 0.107E-04
   0.126E-03 -.115E-03 0.130E-03   0.200E-04 0.588E-04 0.150E-04   -.300E-20 0.136E-19 0.218E-19   0.107E-04 0.162E-04 0.107E-04
   -.172E-02 -.172E-02 -.172E-02   0.250E-11 0.502E-12 0.528E-12   0.212E-18 -.110E-18 -.659E-18   -.371E-07 -.371E-07 -.371E-07

 POSITION                                       TOTAL-FORCE (eV/Angst)
      1.06836      1.06836      1.06836         0.000000     -0.000000     -0.000000
     11.75200     11.75200      1.06836        -0.000000      0.000000      0.000000
     11.75200      1.06836     11.75200         0.000000      0.000000      0.000000
      1.06836     11.75200     11.75200        -0.000000     -0.000000     -0.000000
      3.20509      3.20509      1.06836        -0.000000      0.000000      0.000000
      3.20509      1.06836      3.20509        -0.000000      0.000000      0.000000
      1.06836      3.20509      3.20509        -0.000000     -0.000000     -0.000000
      1.06836      1.06836      5.34182         0.000000     -0.000000     -0.000000
     11.75200     11.75200      5.34182        -0.000000      0.000000     -0.000000
     11.75200      1.06836      7.47855         0.000000      0.000000      0.000000
      1.06836     11.75200      7.47855        -0.000000     -0.000000     -0.000000
      5.34182      1.06836      1.06836         0.000000     -0.000000     -0.000000
      5.34182     11.75200     11.75200        -0.000000     -0.000000     -0.000000
      7.47855     11.75200      1.06836        -0.000000      0.000000      0.000000
      7.47855      1.06836     11.75200        -0.000000      0.000000      0.000000
      1.06836      5.34182      1.06836         0.000000     -0.000000     -0.000000
     11.75200      5.34182     11.75200        -0.000000      0.000000      0.000000
      1.06836      7.47855     11.75200        -0.000000      0.000000     -0.000000
     11.75200      7.47855      1.06836        -0.000000      0.000000      0.000000
      3.20509      3.20509      9.61528         0.000000      0.000000     -0.000000
      1.06836      1.06836      9.61528         0.000000     -0.000000     -0.000000
      3.20509      1.06836      7.47855        -0.000000      0.000000      0.000000
      1.06836      3.20509      7.47855        -0.000000     -0.000000     -0.000000
      3.20509      7.47855      1.06836        -0.000000      0.000000      0.000000
      1.06836      7.47855      3.20509        -0.000000      0.000000     -0.000000
      1.06836      9.61528      1.06836         0.000000     -0.000000     -0.000000
      3.20509      9.61528      3.20509        -0.000000      0.000000      0.000000
      7.47855      3.20509      1.06836        -0.000000      0.000000      0.000000
      7.47855      1.06836      3.20509         0.000000      0.000000      0.000000
      9.61528      3.20509      3.20509        -0.000000     -0.000000     -0.000000
      9.61528      1.06836      1.06836         0.000000     -0.000000      0.000000
     11.75200     11.75200      9.61528        -0.000000      0.000000     -0.000000
     11.75200      1.06836      3.20509        -0.000000      0.000000      0.000000
      1.06836     11.75200      3.20509        -0.000000     -0.000000     -0.000000
      9.61528     11.75200     11.75200        -0.000000     -0.000000     -0.000000
      3.20509     11.75200      1.06836        -0.000000      0.000000      0.000000
      3.20509      1.06836     11.75200         0.000000      0.000000      0.000000
     11.75200      9.61528     11.75200        -0.000000      0.000000      0.000000
      1.06836      3.20509     11.75200        -0.000000     -0.000000     -0.000000
     11.75200      3.20509      1.06836        -0.000000      0.000000      0.000000
      3.20509      3.20509      5.34182         0.000000      0.000000      0.000000
      3.20509      5.34182      3.20509        -0.000000      0.000000      0.000000
      5.34182      3.20509      3.20509        -0.000000     -0.000000     -0.000000
      1.06836      5.34182      5.34182         0.000000     -0.000000      0.000000
     11.75200      7.47855      5.34182        -0.000000      0.000000      0.000000
     11.75200      5.34182      7.47855         0.000000      0.000000      0.000000
      1.06836      7.47855      7.47855        -0.000000     -0.000000     -0.000000
      5.34182      1.06836      5.34182         0.000000     -0.000000     -0.000000
      5.34182     11.75200      7.47855        -0.000000     -0.000000     -0.000000
      7.47855     11.75200      5.34182        -0.000000      0.000000     -0.000000
      7.47855      1.06836      7.47855        -0.000000      0.000000      0.000000
      5.34182      5.34182      1.06836         0.000000     -0.000000     -0.000000
      7.47855      5.34182     11.75200        -0.000000      0.000000      0.000000
      5.34182      7.47855     11.75200        -0.000000     -0.000000     -0.000000
      7.47855      7.47855      1.06836        -0.000000      0.000000      0.000000
      7.47855      3.20509      9.61528        -0.000000      0.000000     -0.000000
      9.61528      1.06836      9.61528         0.000000     -0.000000     -0.000000
      9.61528      3.20509      7.47855        -0.000000     -0.000000     -0.000000
      3.20509      7.47855      9.61528         0.000000      0.000000     -0.000000
      1.06836      9.61528      9.61528         0.000000     -0.000000      0.000000
[...]
      8.54691      8.54691      4.27346         0.000000      0.000000      0.000000
      8.54691      4.27346      8.54691         0.000000     -0.000000      0.000000
      4.27346      8.54691      8.54691         0.000000     -0.000000      0.000000
      6.41018      6.41018     10.68364        -0.000000      0.000000     -0.000000
     10.68364     10.68364     10.68364         0.000000      0.000000     -0.000000
      6.41018     10.68364      6.41018        -0.000000      0.000000     -0.000000
     10.68364      6.41018      6.41018        -0.000000      0.000000     -0.000000
      4.27346      4.27346      8.54691         0.000000     -0.000000      0.000000
      8.54691      8.54691      8.54691         0.000000     -0.000000      0.000000
      8.54691      4.27346      4.27346         0.000000     -0.000000      0.000000
      4.27346      8.54691      4.27346         0.000000      0.000000      0.000000
      6.41018      6.41018      6.41018        -0.000000      0.000000     -0.000000
     10.68364     10.68364      6.41018        -0.000000      0.000000     -0.000000
      6.41018     10.68364     10.68364        -0.000000      0.000000     -0.000000
     10.68364      6.41018     10.68364        -0.000000      0.000000     -0.000000
    total drift:                               -0.001716     -0.001716     -0.001716

  FREE ENERGIE OF THE ION-ELECTRON SYSTEM (eV)
  free  energy   TOTEN  =      -734.22109739 eV

  energy  without entropy=     -734.22103311  energy(sigma->0) =     -734.22106525

 d Force = 0.0000000E+00[ 0.000E+00, 0.000E+00]  d Energy = 0.3265430E-01-0.327E-01
 d Force = 0.0000000E+00[ 0.000E+00, 0.000E+00]  d Ewald  = 0.2442753E+03-0.244E+03

 Quasi-Newton relaxation of ions (Broydens 2nd method)
  g(Force)  = 0.422E-37   g(Stress)= 0.114E-03

 retain information from N=  1 steps
 eigenvalues of (default step * inverse Hessian matrix)
  average eigenvalue of G=   0.6324
 eigenvalue spectrum of G is  0.6324

 reached required accuracy - stopping structural energy minimisation